47.0 5.0 0
1.0 19.0 20
97.0 35.0 14
23.0 79.0 5
77.0 87.0 11
3.0 9.0 22
5.0 27.0 25
41.0 53.0 2
51.0 87.0 18
67.0 73.0 10
89.0 45.0 26
71.0 99.0 14
11.0 1.0 22
85.0 85.0 9
57.0 11.0 11
57.0 85.0 18
71.0 33.0 24
61.0 13.0 15
39.0 15.0 23
13.0 59.0 16
43.0 99.0 14
87.0 73.0 8
11.0 37.0 5
21.0 11.0 12
77.0 81.0 8
3.0 63.0 16
47.0 95.0 12
53.0 75.0 15
73.0 55.0 9
81.0 71.0 2
89.0 75.0 10
11.0 9.0 2
27.0 37.0 3
95.0 59.0 20
63.0 63.0 3
37.0 21.0 13
33.0 47.0 25
23.0 63.0 23
13.0 55.0 8
47.0 93.0 16
45.0 43.0 9
83.0 7.0 14
69.0 91.0 4
13.0 11.0 13
37.0 15.0 7
53.0 59.0 16
97.0 83.0 18
75.0 31.0 16
